NAME : traveling-santa-2018-prime-paths.29769.tour
COMMENT : Length = 29769
COMMENT : Found by LKH [Keld Helsgaun] Sun Jun 12 19:59:39 2022
TYPE : TOUR
DIMENSION : 100
TOUR_SECTION
1
51
84
45
17
36
92
72
93
66
76
65
10
96
88
31
12
58
23
77
44
79
15
81
59
87
48
69
11
30
78
57
56
54
41
35
7
46
53
71
19
63
27
2
95
34
89
6
83
86
62
3
42
13
40
38
16
50
32
68
14
47
85
64
18
74
43
4
97
26
5
67
90
49
20
61
100
39
21
25
22
28
29
24
55
33
75
94
8
73
80
9
37
70
60
82
91
99
52
98
-1
EOF
